read_restart rsrc.inp

variable R file R
variable Lz equal 1.0
variable sx atom mass*vx*vx
variable sy atom mass*vy*vy
variable sz atom mass*vx*vz
variable sxy atom mass*vx*vy
variable ux atom vx*vx
variable uy atom vy*vy
variable uz atom vz*vz
variable th equal 25*PI/180
variable gx equal sin(${th})
variable gy equal -cos(${th})

comm_modify vel yes
neighbor 0.03 bin
neigh_modify binsize 0.15 every 5

pair_style gran/hooke/history 2568000.0 NULL 4952.0 0.0 0.5 0
pair_coeff * *

timestep 1e-6
reset_timestep 0

compute	s all stress/atom NULL pair
compute ch all chunk/atom bin/2d x lower 0.1 y lower 0.1

fix 1 all nve/sphere
fix 2 all gravity 981 vector ${gx} ${gy} 0
fix 3 all wall/gran hooke/history 2568000.0 NULL 4952.0 0.0 0.5 0 zcylinder ${R} shear x 0.025
fix av all ave/chunk 2 50 100 ch mass vx vy vz v_ux v_uy v_uz c_s[1] c_s[2] c_s[3] c_s[4] v_sx v_sy v_sz v_sxy ave running file v.dat overwrite

dump 1 all custom 1000 xv.dump id radius x y z vx vy vz
thermo 1000
thermo_style custom step atoms ke

run_style verlet
run 200000

write_restart rsrc.inp

